\ENCODING=ISO-8859-1
\Problem name: 

Minimize
 obj: 0 y_9_9 + 0 y_9_9 + 161.29140469601 y_9_9 + 554.996604435348 y_9_9
      + 181.335862338274 y_9_9 + 336.508014187875 y_9_9
      + 601.326642789804 y_9_9 + 382.680917055204 y_9_9
      + 393.459673730889 y_9_9 + 625.535741105629 y_9_9
      + 213.223284307703 y_9_9 + 161.29140469601 y_9_9 + 712.274566520171 y_9_9
      + 339.079878868712 y_9_9 + 242.002339954189 y_9_9
      + 441.156354457235 y_9_9 + 369.230161217629 y_9_9
      + 236.546652136281 y_9_9 + 467.885633733171 y_9_9
      + 357.820728275633 y_9_9 + 554.996604435348 y_9_9
      + 712.274566520171 y_9_9 + 373.823637679443 y_9_9
      + 867.604314253189 y_9_9 + 1152.95595916677 y_9_9
      + 822.660370078915 y_9_9 + 947.831246119947 y_9_9
      + 1152.50984773832 y_9_9 + 446.008865397526 y_9_9
      + 181.335862338274 y_9_9 + 339.079878868712 y_9_9
      + 373.823637679443 y_9_9 + 506.276756101867 y_9_9
      + 780.214828985201 y_9_9 + 505.994629487928 y_9_9
      + 574.065497538724 y_9_9 + 791.336934525624 y_9_9
      + 172.955871088269 y_9_9 + 336.508014187875 y_9_9
      + 242.002339954189 y_9_9 + 867.604314253189 y_9_9
      + 506.276756101867 y_9_9 + 385.040733903657 y_9_9 + 197.25631190677 y_9_9
      + 206.575383485631 y_9_9 + 498.300095792782 y_9_9
      + 437.922810816691 y_9_9 + 601.326642789804 y_9_9
      + 441.156354457235 y_9_9 + 1152.95595916677 y_9_9
      + 780.214828985201 y_9_9 + 385.040733903657 y_9_9
      + 574.169621014576 y_9_9 + 211.396169774208 y_9_9
      + 175.661189305283 y_9_9 + 775.969053116707 y_9_9
      + 382.680917055204 y_9_9 + 369.230161217629 y_9_9
      + 822.660370078915 y_9_9 + 505.994629487928 y_9_9 + 197.25631190677 y_9_9
      + 574.169621014576 y_9_9 + 403.701055085179 y_9_9
      + 695.407764814475 y_9_9 + 377.321603084799 y_9_9
      + 393.459673730889 y_9_9 + 236.546652136281 y_9_9
      + 947.831246119947 y_9_9 + 574.065497538724 y_9_9
      + 206.575383485631 y_9_9 + 211.396169774208 y_9_9
      + 403.701055085179 y_9_9 + 293.37042000855 y_9_9 + 564.718933481077 y_9_9
      + 625.535741105629 y_9_9 + 467.885633733171 y_9_9
      + 1152.50984773832 y_9_9 + 791.336934525624 y_9_9
      + 498.300095792782 y_9_9 + 175.661189305283 y_9_9
      + 695.407764814475 y_9_9 + 293.37042000855 y_9_9 + 824.706527070854 y_9_9
      + 213.223284307703 y_9_9 + 357.820728275633 y_9_9
      + 446.008865397526 y_9_9 + 172.955871088269 y_9_9
      + 437.922810816691 y_9_9 + 775.969053116707 y_9_9
      + 377.321603084799 y_9_9 + 564.718933481077 y_9_9
      + 824.706527070854 y_9_9
Subject To
 c1:   y_9_9 - y_9_9 - y_9_9 - y_9_9 - y_9_9 - y_9_9 - y_9_9 - y_9_9 - y_9_9
       - y_9_9 - y_9_9 + y_9_9 + y_9_9 + y_9_9 + y_9_9 + y_9_9 + y_9_9 + y_9_9
       + y_9_9  = 1
 c2:   y_9_9 + y_9_9 - y_9_9 - y_9_9 - y_9_9 - y_9_9 - y_9_9 - y_9_9 - y_9_9
       - y_9_9 - y_9_9 - y_9_9 + y_9_9 + y_9_9 + y_9_9 + y_9_9 + y_9_9 + y_9_9
       + y_9_9  = 1
 c3:   y_9_9 + y_9_9 + y_9_9 - y_9_9 - y_9_9 - y_9_9 - y_9_9 - y_9_9 - y_9_9
       - y_9_9 - y_9_9 - y_9_9 - y_9_9 + y_9_9 + y_9_9 + y_9_9 + y_9_9 + y_9_9
       + y_9_9  = 1
 c4:   y_9_9 + y_9_9 + y_9_9 + y_9_9 - y_9_9 - y_9_9 - y_9_9 - y_9_9 - y_9_9
       - y_9_9 - y_9_9 - y_9_9 - y_9_9 - y_9_9 + y_9_9 + y_9_9 + y_9_9 + y_9_9
       + y_9_9  = 1
 c5:   y_9_9 + y_9_9 + y_9_9 + y_9_9 + y_9_9 - y_9_9 - y_9_9 - y_9_9 - y_9_9
       - y_9_9 - y_9_9 - y_9_9 - y_9_9 - y_9_9 - y_9_9 + y_9_9 + y_9_9 + y_9_9
       + y_9_9  = 1
 c6:   y_9_9 + y_9_9 + y_9_9 + y_9_9 + y_9_9 + y_9_9 - y_9_9 - y_9_9 - y_9_9
       - y_9_9 - y_9_9 - y_9_9 - y_9_9 - y_9_9 - y_9_9 - y_9_9 + y_9_9 + y_9_9
       + y_9_9  = 1
 c7:   y_9_9 + y_9_9 + y_9_9 + y_9_9 + y_9_9 + y_9_9 + y_9_9 - y_9_9 - y_9_9
       - y_9_9 - y_9_9 - y_9_9 - y_9_9 - y_9_9 - y_9_9 - y_9_9 - y_9_9 + y_9_9
       + y_9_9  = 1
 c8:   y_9_9 + y_9_9 + y_9_9 + y_9_9 + y_9_9 + y_9_9 + y_9_9 + y_9_9 - y_9_9
       - y_9_9 - y_9_9 - y_9_9 - y_9_9 - y_9_9 - y_9_9 - y_9_9 - y_9_9 - y_9_9
       + y_9_9  = 1
 c9:   y_9_9 + y_9_9 + y_9_9 + y_9_9 + y_9_9 + y_9_9 + y_9_9 + y_9_9 + y_9_9
       - y_9_9 - y_9_9 - y_9_9 - y_9_9 - y_9_9 - y_9_9 - y_9_9 - y_9_9 - y_9_9
       - y_9_9  = 1
 c10:  y_9_9 + y_9_9 + y_9_9 + y_9_9 + y_9_9 + y_9_9 + y_9_9 + y_9_9 + y_9_9
        = 1
 c11:  y_9_9 + y_9_9 + y_9_9 + y_9_9 + y_9_9 + y_9_9 + y_9_9 + y_9_9 + y_9_9
        = 1
 c12:  y_9_9 + y_9_9 + y_9_9 + y_9_9 + y_9_9 + y_9_9 + y_9_9 + y_9_9 + y_9_9
        = 1
 c13:  y_9_9 + y_9_9 + y_9_9 + y_9_9 + y_9_9 + y_9_9 + y_9_9 + y_9_9 + y_9_9
        = 1
 c14:  y_9_9 + y_9_9 + y_9_9 + y_9_9 + y_9_9 + y_9_9 + y_9_9 + y_9_9 + y_9_9
        = 1
 c15:  y_9_9 + y_9_9 + y_9_9 + y_9_9 + y_9_9 + y_9_9 + y_9_9 + y_9_9 + y_9_9
        = 1
 c16:  y_9_9 + y_9_9 + y_9_9 + y_9_9 + y_9_9 + y_9_9 + y_9_9 + y_9_9 + y_9_9
        = 1
 c17:  y_9_9 + y_9_9 + y_9_9 + y_9_9 + y_9_9 + y_9_9 + y_9_9 + y_9_9 + y_9_9
        = 1
 c18:  y_9_9 + y_9_9 + y_9_9 + y_9_9 + y_9_9 + y_9_9 + y_9_9 + y_9_9 + y_9_9
        = 1
 c19:  y_9_9 + y_9_9 + y_9_9 + y_9_9 + y_9_9 + y_9_9 + y_9_9 + y_9_9 + y_9_9
        = 1
 c20:  y_9_9 + y_9_9 + y_9_9 + y_9_9 + y_9_9 + y_9_9 + y_9_9 + y_9_9 + y_9_9
        = 1
 c21:  y_9_9 + y_9_9 + y_9_9 + y_9_9 + y_9_9 + y_9_9 + y_9_9 + y_9_9 + y_9_9
        = 1
 c22:  y_9_9 + y_9_9 + y_9_9 + y_9_9 + y_9_9 + y_9_9 + y_9_9 + y_9_9 + y_9_9
        = 1
 c23:  y_9_9 + y_9_9 + y_9_9 + y_9_9 + y_9_9 + y_9_9 + y_9_9 + y_9_9 + y_9_9
        = 1
 c24:  y_9_9 + y_9_9 + y_9_9 + y_9_9 + y_9_9 + y_9_9 + y_9_9 + y_9_9 + y_9_9
        = 1
 c25:  y_9_9 + y_9_9 + y_9_9 + y_9_9 + y_9_9 + y_9_9 + y_9_9 + y_9_9 + y_9_9
        = 1
 c26:  y_9_9 + y_9_9 + y_9_9 + y_9_9 + y_9_9 + y_9_9 + y_9_9 + y_9_9 + y_9_9
        = 1
 c27:  y_9_9 + y_9_9 + y_9_9 + y_9_9 + y_9_9 + y_9_9 + y_9_9 + y_9_9 + y_9_9
        = 1
 c28:  y_9_9 + y_9_9 + y_9_9 + y_9_9 + y_9_9 + y_9_9 + y_9_9 + y_9_9 + y_9_9
        = 1
 c29:  y_9_9 + y_9_9 + y_9_9 + y_9_9 + y_9_9 + y_9_9 + y_9_9 + y_9_9 + y_9_9
        = 1
 c30:  y_9_9 - 9 y_9_9 <= 0
 c31:  y_9_9 - 9 y_9_9 <= 0
 c32:  y_9_9 - 9 y_9_9 <= 0
 c33:  y_9_9 - 9 y_9_9 <= 0
 c34:  y_9_9 - 9 y_9_9 <= 0
 c35:  y_9_9 - 9 y_9_9 <= 0
 c36:  y_9_9 - 9 y_9_9 <= 0
 c37:  y_9_9 - 9 y_9_9 <= 0
 c38:  y_9_9 - 9 y_9_9 <= 0
 c39:  y_9_9 - 9 y_9_9 <= 0
 c40:  y_9_9 - 9 y_9_9 <= 0
 c41:  y_9_9 - 9 y_9_9 <= 0
 c42:  y_9_9 - 9 y_9_9 <= 0
 c43:  y_9_9 - 9 y_9_9 <= 0
 c44:  y_9_9 - 9 y_9_9 <= 0
 c45:  y_9_9 - 9 y_9_9 <= 0
 c46:  y_9_9 - 9 y_9_9 <= 0
 c47:  y_9_9 - 9 y_9_9 <= 0
 c48:  y_9_9 - 9 y_9_9 <= 0
 c49:  y_9_9 - 9 y_9_9 <= 0
 c50:  y_9_9 - 9 y_9_9 <= 0
 c51:  y_9_9 - 9 y_9_9 <= 0
 c52:  y_9_9 - 9 y_9_9 <= 0
 c53:  y_9_9 - 9 y_9_9 <= 0
 c54:  y_9_9 - 9 y_9_9 <= 0
 c55:  y_9_9 - 9 y_9_9 <= 0
 c56:  y_9_9 - 9 y_9_9 <= 0
 c57:  y_9_9 - 9 y_9_9 <= 0
 c58:  y_9_9 - 9 y_9_9 <= 0
 c59:  y_9_9 - 9 y_9_9 <= 0
 c60:  y_9_9 - 9 y_9_9 <= 0
 c61:  y_9_9 - 9 y_9_9 <= 0
 c62:  y_9_9 - 9 y_9_9 <= 0
 c63:  y_9_9 - 9 y_9_9 <= 0
 c64:  y_9_9 - 9 y_9_9 <= 0
 c65:  y_9_9 - 9 y_9_9 <= 0
 c66:  y_9_9 - 9 y_9_9 <= 0
 c67:  y_9_9 - 9 y_9_9 <= 0
 c68:  y_9_9 - 9 y_9_9 <= 0
 c69:  y_9_9 - 9 y_9_9 <= 0
 c70:  y_9_9 - 9 y_9_9 <= 0
 c71:  y_9_9 - 9 y_9_9 <= 0
 c72:  y_9_9 - 9 y_9_9 <= 0
 c73:  y_9_9 - 9 y_9_9 <= 0
 c74:  y_9_9 - 9 y_9_9 <= 0
 c75:  y_9_9 - 9 y_9_9 <= 0
 c76:  y_9_9 - 9 y_9_9 <= 0
 c77:  y_9_9 - 9 y_9_9 <= 0
 c78:  y_9_9 - 9 y_9_9 <= 0
 c79:  y_9_9 - 9 y_9_9 <= 0
 c80:  y_9_9 - 9 y_9_9 <= 0
 c81:  y_9_9 - 9 y_9_9 <= 0
 c82:  y_9_9 - 9 y_9_9 <= 0
 c83:  y_9_9 - 9 y_9_9 <= 0
 c84:  y_9_9 - 9 y_9_9 <= 0
 c85:  y_9_9 - 9 y_9_9 <= 0
 c86:  y_9_9 - 9 y_9_9 <= 0
 c87:  y_9_9 - 9 y_9_9 <= 0
 c88:  y_9_9 - 9 y_9_9 <= 0
 c89:  y_9_9 - 9 y_9_9 <= 0
 c90:  y_9_9 - 9 y_9_9 <= 0
 c91:  y_9_9 - 9 y_9_9 <= 0
 c92:  y_9_9 - 9 y_9_9 <= 0
 c93:  y_9_9 - 9 y_9_9 <= 0
 c94:  y_9_9 - 9 y_9_9 <= 0
 c95:  y_9_9 - 9 y_9_9 <= 0
 c96:  y_9_9 - 9 y_9_9 <= 0
 c97:  y_9_9 - 9 y_9_9 <= 0
 c98:  y_9_9 - 9 y_9_9 <= 0
 c99:  y_9_9 - 9 y_9_9 <= 0
 c100: y_9_9 - 9 y_9_9 <= 0
 c101: y_9_9 - 9 y_9_9 <= 0
 c102: y_9_9 - 9 y_9_9 <= 0
 c103: y_9_9 - 9 y_9_9 <= 0
 c104: y_9_9 - 9 y_9_9 <= 0
 c105: y_9_9 - 9 y_9_9 <= 0
 c106: y_9_9 - 9 y_9_9 <= 0
 c107: y_9_9 - 9 y_9_9 <= 0
 c108: y_9_9 - 9 y_9_9 <= 0
 c109: y_9_9 - 9 y_9_9 <= 0
 c110: y_9_9 - 9 y_9_9 <= 0
 c111: y_9_9 - 9 y_9_9 <= 0
 c112: y_9_9 - 9 y_9_9 <= 0
 c113: y_9_9 - 9 y_9_9 <= 0
 c114: y_9_9 - 9 y_9_9 <= 0
 c115: y_9_9 - 9 y_9_9 <= 0
 c116: y_9_9 - 9 y_9_9 <= 0
 c117: y_9_9 - 9 y_9_9 <= 0
 c118: y_9_9 - 9 y_9_9 <= 0
 c119: y_9_9 - 9 y_9_9 <= 0
Bounds
 0 <= y_9_9 <= 1
 0 <= y_9_9 <= 1
 0 <= y_9_9 <= 1
 0 <= y_9_9 <= 1
 0 <= y_9_9 <= 1
 0 <= y_9_9 <= 1
 0 <= y_9_9 <= 1
 0 <= y_9_9 <= 1
 0 <= y_9_9 <= 1
 0 <= y_9_9 <= 1
 0 <= y_9_9 <= 1
 0 <= y_9_9 <= 1
 0 <= y_9_9 <= 1
 0 <= y_9_9 <= 1
 0 <= y_9_9 <= 1
 0 <= y_9_9 <= 1
 0 <= y_9_9 <= 1
 0 <= y_9_9 <= 1
 0 <= y_9_9 <= 1
 0 <= y_9_9 <= 1
 0 <= y_9_9 <= 1
 0 <= y_9_9 <= 1
 0 <= y_9_9 <= 1
 0 <= y_9_9 <= 1
 0 <= y_9_9 <= 1
 0 <= y_9_9 <= 1
 0 <= y_9_9 <= 1
 0 <= y_9_9 <= 1
 0 <= y_9_9 <= 1
 0 <= y_9_9 <= 1
 0 <= y_9_9 <= 1
 0 <= y_9_9 <= 1
 0 <= y_9_9 <= 1
 0 <= y_9_9 <= 1
 0 <= y_9_9 <= 1
 0 <= y_9_9 <= 1
 0 <= y_9_9 <= 1
 0 <= y_9_9 <= 1
 0 <= y_9_9 <= 1
 0 <= y_9_9 <= 1
 0 <= y_9_9 <= 1
 0 <= y_9_9 <= 1
 0 <= y_9_9 <= 1
 0 <= y_9_9 <= 1
 0 <= y_9_9 <= 1
 0 <= y_9_9 <= 1
 0 <= y_9_9 <= 1
 0 <= y_9_9 <= 1
 0 <= y_9_9 <= 1
 0 <= y_9_9 <= 1
 0 <= y_9_9 <= 1
 0 <= y_9_9 <= 1
 0 <= y_9_9 <= 1
 0 <= y_9_9 <= 1
 0 <= y_9_9 <= 1
 0 <= y_9_9 <= 1
 0 <= y_9_9 <= 1
 0 <= y_9_9 <= 1
 0 <= y_9_9 <= 1
 0 <= y_9_9 <= 1
 0 <= y_9_9 <= 1
 0 <= y_9_9 <= 1
 0 <= y_9_9 <= 1
 0 <= y_9_9 <= 1
 0 <= y_9_9 <= 1
 0 <= y_9_9 <= 1
 0 <= y_9_9 <= 1
 0 <= y_9_9 <= 1
 0 <= y_9_9 <= 1
 0 <= y_9_9 <= 1
 0 <= y_9_9 <= 1
 0 <= y_9_9 <= 1
 0 <= y_9_9 <= 1
 0 <= y_9_9 <= 1
 0 <= y_9_9 <= 1
 0 <= y_9_9 <= 1
 0 <= y_9_9 <= 1
 0 <= y_9_9 <= 1
 0 <= y_9_9 <= 1
 0 <= y_9_9 <= 1
 0 <= y_9_9 <= 1
 0 <= y_9_9 <= 1
 0 <= y_9_9 <= 1
 0 <= y_9_9 <= 1
 0 <= y_9_9 <= 1
 0 <= y_9_9 <= 1
 0 <= y_9_9 <= 1
 0 <= y_9_9 <= 1
 0 <= y_9_9 <= 1
 0 <= y_9_9 <= 1
 0 <= y_9_9 <= 1
 0 <= y_9_9 <= 1
 0 <= y_9_9 <= 1
 0 <= y_9_9 <= 1
 0 <= y_9_9 <= 1
 0 <= y_9_9 <= 1
 0 <= y_9_9 <= 1
 0 <= y_9_9 <= 1
 0 <= y_9_9 <= 1
 0 <= y_9_9 <= 1
Binaries
 y_9_9  y_9_9  y_9_9  y_9_9  y_9_9  y_9_9  y_9_9  y_9_9  y_9_9  y_9_9  y_9_9 
 y_9_9  y_9_9  y_9_9  y_9_9  y_9_9  y_9_9  y_9_9  y_9_9  y_9_9  y_9_9  y_9_9 
 y_9_9  y_9_9  y_9_9  y_9_9  y_9_9  y_9_9  y_9_9  y_9_9  y_9_9  y_9_9  y_9_9 
 y_9_9  y_9_9  y_9_9  y_9_9  y_9_9  y_9_9  y_9_9  y_9_9  y_9_9  y_9_9  y_9_9 
 y_9_9  y_9_9  y_9_9  y_9_9  y_9_9  y_9_9  y_9_9  y_9_9  y_9_9  y_9_9  y_9_9 
 y_9_9  y_9_9  y_9_9  y_9_9  y_9_9  y_9_9  y_9_9  y_9_9  y_9_9  y_9_9  y_9_9 
 y_9_9  y_9_9  y_9_9  y_9_9  y_9_9  y_9_9  y_9_9  y_9_9  y_9_9  y_9_9  y_9_9 
 y_9_9  y_9_9  y_9_9  y_9_9  y_9_9  y_9_9  y_9_9  y_9_9  y_9_9  y_9_9  y_9_9 
 y_9_9  y_9_9  y_9_9  y_9_9  y_9_9  y_9_9  y_9_9  y_9_9  y_9_9  y_9_9  y_9_9 
 y_9_9 
End
